W = 1..30;
H = 1..8;
a = [|
1, 0, 0, 0, 0, 1, 0, 1, |
0, 1, 0, 1, 0, 1, 0, 1, |
1, 1, 0, 1, 0, 0, 0, 0, |
0, 0, 0, 0, 0, 0, 0, 0, |
0, 1, 0, 0, 1, 1, 1, 1, |
1, 1, 1, 1, 1, 1, 1, 1, |
1, 0, 1, 1, 0, 0, 0, 0, |
0, 0, 1, 0, 1, 1, 1, 1, |
1, 0, 1, 0, 1, 0, 1, 0, |
0, 0, 0, 1, 1, 0, 1, 0, |
0, 1, 0, 1, 1, 1, 0, 1, |
0, 1, 0, 1, 0, 0, 0, 0, |
0, 0, 0, 0, 1, 1, 0, 1, |
1, 1, 1, 1, 1, 0, 1, 1, |
1, 1, 1, 1, 0, 0, 0, 0, |
0, 0, 0, 0, 1, 0, 1, 1, |
1, 1, 1, 1, 1, 1, 0, 1, |
1, 0, 1, 0, 0, 0, 0, 0, |
1, 0, 1, 0, 1, 0, 1, 1, |
1, 0, 0, 0, 0, 0, 0, 0, |
0, 0, 0, 0, 0, 1, 0, 1, |
0, 1, 0, 0, 0, 0, 0, 0, |
0, 0, 0, 0, 1, 1, 1, 1, |
0, 0, 1, 0, 0, 0, 0, 0, |
0, 0, 0, 0, 1, 0, 1, 0, |
0, 0, 0, 1, 0, 0, 0, 0, |
0, 0, 0, 0, 1, 0, 0, 0, |
0, 0, 0, 0, 0, 1, 0, 0, |
0, 0, 0, 0, 0, 0, 1, 0, |
0, 0, 0, 0, 0, 0, 0, 1, |];
target = [1, 1, 0, 0, 1, 0, 0, 1, 1, 1, 0, 0, 1, 0, 1, 1, 0, 0, 0, 0, 1, 0, 1, 0, 1, 0, 0, 0, 0, 0, ];
