W = 1..30;
H = 1..8;
a = [|
0, 0, 0, 0, 0, 0, 0, 1, |
0, 0, 0, 1, 0, 0, 0, 0, |
0, 0, 0, 1, 0, 0, 0, 1, |
0, 0, 0, 0, 0, 0, 0, 0, |
0, 0, 1, 1, 0, 0, 1, 0, |
0, 0, 1, 1, 1, 0, 0, 0, |
0, 0, 0, 0, 1, 0, 1, 0, |
0, 0, 1, 0, 1, 0, 0, 1, |
0, 0, 1, 0, 1, 0, 0, 0, |
0, 0, 1, 0, 0, 0, 1, 0, |
0, 1, 0, 1, 0, 0, 0, 0, |
1, 0, 0, 1, 0, 0, 0, 0, |
1, 1, 0, 0, 0, 0, 0, 0, |
1, 0, 0, 1, 1, 1, 0, 0, |
1, 1, 0, 1, 1, 0, 0, 0, |
0, 1, 0, 0, 0, 1, 0, 0, |
0, 0, 0, 1, 1, 0, 0, 0, |
0, 1, 0, 0, 1, 0, 0, 0, |
0, 0, 0, 0, 1, 1, 0, 0, |
1, 0, 0, 0, 0, 0, 0, 1, |
1, 0, 0, 0, 0, 0, 0, 0, |
1, 1, 0, 1, 0, 0, 1, 0, |
1, 1, 1, 0, 0, 0, 0, 0, |
1, 1, 0, 0, 1, 0, 0, 1, |
0, 1, 1, 0, 0, 0, 0, 0, |
0, 1, 0, 0, 0, 0, 1, 0, |
0, 1, 0, 0, 0, 0, 0, 0, |
1, 0, 1, 0, 0, 1, 0, 0, |
0, 0, 1, 0, 0, 0, 0, 0, |
0, 0, 1, 0, 0, 1, 0, 0, |];
target = [1, 0, 1, 0, 0, 1, 0, 0, 1, 1, 1, 0, 0, 0, 0, 0, 1, 0, 0, 0, 0, 0, 0, 0, 0, 0, 0, 1, 0, 0, ];
costs = [4, 9, 16, 25, 4, 9, 16, 4, 9, 4, 4, 9, 16, 4, 9, 16, 4, 9, 4, 4, 9, 4, 9, 4, 9, 4, 4, 4, 4, 4, ];
at_most = 54;
